NAME : ulysses22.7843.tour
COMMENT : Cost = 0_7843
COMMENT : Found by LKH [Keld Helsgaun] Thu Nov 16 16:27:07 2017
TYPE : TOUR
DIMENSION : 26
TOUR_SECTION
1
8
26
18
4
17
2
3
25
21
20
19
10
9
11
5
15
6
7
12
13
14
24
22
23
16
-1
EOF
